
Gurobi 12.0.2 (mac64[arm]) logging started Sat Jun 14 01:27:56 2025

Set parameter LogFile to value "/Users/yurunfeng/Documents/GitHub/LRGTS-store-location/result/gurobi/snyder/49nodes/49-0.95-5.log"
Gurobi Optimizer version 12.0.2 build v12.0.2rc0 (mac64[arm] - Darwin 24.5.0 24F74)

CPU model: Apple M4
Thread count: 10 physical cores, 10 logical processors, using up to 10 threads

Non-default parameters:
TimeLimit  1200

Optimize a model with 132251 rows, 240247 columns and 1133517 nonzeros
Model fingerprint: 0x5d3fc0cc
Variable types: 120099 continuous, 120148 integer (120148 binary)
Coefficient statistics:
  Matrix range     [5e-02, 1e+00]
  Objective range  [2e+02, 3e+06]
  Bounds range     [1e+00, 1e+00]
  RHS range        [1e+00, 5e+00]
Found heuristic solution: objective 2.470516e+07
Presolve removed 4900 rows and 2450 columns
Presolve time: 1.28s
Presolved: 127351 rows, 237797 columns, 1006117 nonzeros
Variable types: 117649 continuous, 120148 integer (120148 binary)
Deterministic concurrent LP optimizer: primal simplex, dual simplex, and barrier
Showing barrier log only...

Root barrier log...

Ordering time: 0.26s

Barrier performed 0 iterations in 1.85 seconds (5.06 work units)
Barrier solve interrupted - model solved by another algorithm

Concurrent spin time: 0.10s (can be avoided by choosing Method=3)

Solved with dual simplex

Root relaxation: objective 9.936896e+05, 2646 iterations, 0.50 seconds (0.98 work units)

    Nodes    |    Current Node    |     Objective Bounds      |     Work
 Expl Unexpl |  Obj  Depth IntInf | Incumbent    BestBd   Gap | It/Node Time

     0     0 993689.634    0  857 2.4705e+07 993689.634  96.0%     -    2s
H    0     0                    2064898.1355 993689.634  51.9%     -    6s
H    0     0                    1139412.5011 993689.634  12.8%     -    6s
H    0     0                    1089238.2432 993689.634  8.77%     -    6s
H    0     0                    1088733.2083 993689.634  8.73%     -    7s
     0     0 1009671.53    0 1457 1088733.21 1009671.53  7.26%     -   16s
     0     0 1009671.53    0 1456 1088733.21 1009671.53  7.26%     -   16s
H    0     0                    1088732.5058 1009671.53  7.26%     -   19s
H    0     0                    1078996.5132 1009671.53  6.42%     -   20s
H    0     0                    1076506.3221 1009671.53  6.21%     -   21s
H    0     0                    1076475.3851 1009671.53  6.21%     -   21s
H    0     0                    1076475.3247 1009671.53  6.21%     -   21s
H    0     0                    1076475.2813 1009671.53  6.21%     -   21s
H    0     0                    1076475.1412 1009671.53  6.21%     -   21s
H    0     0                    1076475.0233 1009671.53  6.21%     -   21s
H    0     0                    1076474.9815 1009671.53  6.21%     -   22s
     0     0 1009677.32    0 1460 1076474.98 1009677.32  6.21%     -   22s
     0     0 1021163.37    0 1090 1076474.98 1021163.37  5.14%     -   36s
     0     0 1021163.68    0 1090 1076474.98 1021163.68  5.14%     -   36s
H    0     0                    1066661.2703 1021163.68  4.27%     -   41s
     0     0 1029030.18    0 1561 1066661.27 1029030.18  3.53%     -   55s
     0     0 1029030.25    0 1532 1066661.27 1029030.25  3.53%     -   55s
     0     0 1029134.35    0 1617 1066661.27 1029134.35  3.52%     -   60s
     0     0 1029134.35    0 1618 1066661.27 1029134.35  3.52%     -   60s
     0     0 1031974.36    0 2050 1066661.27 1031974.36  3.25%     -   63s
     0     0 1032019.08    0 2056 1066661.27 1032019.08  3.25%     -   63s
     0     0 1032073.01    0 1970 1066661.27 1032073.01  3.24%     -   65s
     0     0 1032073.01    0 1971 1066661.27 1032073.01  3.24%     -   65s
     0     0 1034762.06    0 2027 1066661.27 1034762.06  2.99%     -   68s
     0     0 1035312.39    0 2162 1066661.27 1035312.39  2.94%     -   74s
     0     0 1035340.01    0 2173 1066661.27 1035340.01  2.94%     -   74s
     0     0 1035340.01    0 2174 1066661.27 1035340.01  2.94%     -   74s
     0     0 1036605.03    0 2214 1066661.27 1036605.03  2.82%     -   77s
     0     0 1036605.04    0 2212 1066661.27 1036605.04  2.82%     -   77s
     0     0 1036781.76    0 2338 1066661.27 1036781.76  2.80%     -   79s
     0     0 1036783.01    0 2329 1066661.27 1036783.01  2.80%     -   80s
     0     0 1037172.61    0 2239 1066661.27 1037172.61  2.76%     -   81s
     0     0 1037209.80    0 2306 1066661.27 1037209.80  2.76%     -   83s
     0     0 1037230.64    0 2304 1066661.27 1037230.64  2.76%     -   83s
     0     0 1037253.15    0 2354 1066661.27 1037253.15  2.76%     -   83s
     0     0 1037267.57    0 2361 1066661.27 1037267.57  2.76%     -   84s
     0     0 1037267.57    0 2365 1066661.27 1037267.57  2.76%     -   84s
     0     0 1037475.27    0 2352 1066661.27 1037475.27  2.74%     -   85s
     0     0 1037487.45    0 2433 1066661.27 1037487.45  2.74%     -   87s
     0     0 1037487.45    0 2461 1066661.27 1037487.45  2.74%     -   87s
     0     0 1037508.35    0 2374 1066661.27 1037508.35  2.73%     -   87s
H    0     0                    1065794.3068 1037508.93  2.65%     -   91s
H    0     0                    1065089.2821 1037508.93  2.59%     -   91s
H    0     0                    1061800.6271 1037508.93  2.29%     -   91s
H    0     0                    1053786.8939 1037508.93  1.54%     -   91s
H    0     0                    1053353.4423 1037508.93  1.50%     -   91s
H    0     0                    1053310.3180 1037508.93  1.50%     -   91s
H    0     0                    1053310.0580 1037508.93  1.50%     -   91s
H    0     0                    1053070.7207 1037508.93  1.48%     -   91s
H    0     0                    1053022.9834 1037508.93  1.47%     -   91s
     0     0 1037513.06    0 2293 1053022.98 1037513.06  1.47%     -   92s
     0     0 1037515.85    0 2180 1053022.98 1037515.85  1.47%     -   92s
     0     0 1037515.85    0 2192 1053022.98 1037515.85  1.47%     -   92s
     0     0 1037778.70    0 2348 1053022.98 1037778.70  1.45%     -   93s
     0     0 1037778.70    0 1176 1053022.86 1037778.70  1.45%     -  113s
     0     0 1037778.70    0 1162 1053022.86 1037778.70  1.45%     -  114s
H    0     0                    1052779.2501 1037778.70  1.42%     -  118s
H    0     0                    1052777.5170 1037778.70  1.42%     -  118s
H    0     0                    1052745.6041 1037778.70  1.42%     -  118s
H    0     0                    1052570.8714 1037778.70  1.41%     -  118s
H    0     0                    1052459.9765 1037778.70  1.39%     -  120s
H    0     0                    1052418.4659 1037778.70  1.39%     -  120s
     0     0 1037778.70    0 1796 1052418.47 1037778.70  1.39%     -  121s
     0     0 1037778.70    0 1105 1052418.47 1037778.70  1.39%     -  136s
H    0     0                    1046771.3398 1037778.70  0.86%     -  138s
H    0     0                    1046425.1974 1037778.70  0.83%     -  139s
H    0     0                    1046400.0419 1037778.70  0.82%     -  139s
     0     0 1038148.79    0 1339 1046400.04 1038148.79  0.79%     -  144s
     0     0 1038148.79    0 1351 1046400.04 1038148.79  0.79%     -  144s
     0     0 1038148.79    0 1443 1046400.04 1038148.79  0.79%     -  145s
     0     0 1038148.79    0 1377 1046400.04 1038148.79  0.79%     -  145s
H    0     0                    1043122.0799 1038148.79  0.48%     -  146s
H    0     0                    1043024.8880 1038148.79  0.47%     -  146s
H    0     0                    1041784.8741 1038148.79  0.35%     -  146s
H    0     0                    1041784.4135 1038148.79  0.35%     -  146s
H    0     0                    1040726.5815 1038148.79  0.25%     -  146s
     0     0 1040403.49    0 1321 1040726.58 1040403.49  0.03%     -  148s
     0     0 1040403.49    0 1192 1040726.58 1040403.49  0.03%     -  149s
     0     0 1040403.49    0 1235 1040726.58 1040403.49  0.03%     -  149s
     0     0 1040403.49    0 1167 1040726.58 1040403.49  0.03%     -  150s
     0     0 1040403.49    0 1184 1040726.58 1040403.49  0.03%     -  150s
     0     0 1040403.49    0 1172 1040726.58 1040403.49  0.03%     -  150s
     0     0 1040403.49    0 1171 1040726.58 1040403.49  0.03%     -  150s
     0     0 1040403.49    0 1172 1040726.58 1040403.49  0.03%     -  150s
     0     0 1040403.49    0 1171 1040726.58 1040403.49  0.03%     -  150s
     0     0 1040403.49    0 1171 1040726.58 1040403.49  0.03%     -  150s
     0     0 1040406.99    0 1084 1040726.58 1040406.99  0.03%     -  152s
     0     0 1040406.99    0 1086 1040726.58 1040406.99  0.03%     -  152s
     0     0 1040406.99    0 1085 1040726.58 1040406.99  0.03%     -  152s
     0     0 1040406.99    0 1086 1040726.58 1040406.99  0.03%     -  152s
     0     0 1040406.99    0 1085 1040726.58 1040406.99  0.03%     -  152s
     0     0 1040407.35    0 1173 1040726.58 1040407.35  0.03%     -  153s
     0     0 1040407.35    0 1173 1040726.58 1040407.35  0.03%     -  153s
     0     0 1040407.80    0 1173 1040726.58 1040407.80  0.03%     -  153s
     0     0 1040407.87    0 1334 1040726.58 1040407.87  0.03%     -  153s
     0     0 1040453.04    0  295 1040726.58 1040453.04  0.03%     -  156s
     0     0 1040453.04    0  297 1040726.58 1040453.04  0.03%     -  156s
H    0     0                    1040723.8752 1040453.04  0.03%     -  156s
H    0     0                    1040723.8741 1040453.04  0.03%     -  156s
     0     0 1040455.73    0  590 1040723.87 1040455.73  0.03%     -  156s
H    0     0                    1040577.0529 1040455.73  0.01%     -  156s

Explored 1 nodes (62758 simplex iterations) in 156.70 seconds (304.82 work units)
Thread count was 10 (of 10 available processors)

Solution count 10: 1.04058e+06 1.04058e+06 1.04072e+06 ... 1.04643e+06

Optimal solution found (tolerance 1.00e-04)
Best objective 1.040577052063e+06, best bound 1.040571860483e+06, gap 0.0005%
